p cnf 336 2592
-1 -97 0
-1 -98 0
97 -97 0
98 -98 0
-17 -109 0
-17 -110 0
109 -109 0
110 -110 0
-33 -121 0
-33 -122 0
121 -121 0
122 -122 0
-49 -133 0
-49 -134 0
133 -133 0
134 -134 0
-65 -145 0
-65 -146 0
145 -145 0
146 -146 0
-81 -157 0
-81 -158 0
157 -157 0
158 -158 0
-2 -97 0
-2 -98 0
97 -97 0
98 -98 0
-18 -109 0
-18 -110 0
109 -109 0
110 -110 0
-34 -121 0
-34 -122 0
121 -121 0
122 -122 0
-50 -133 0
-50 -134 0
133 -133 0
134 -134 0
-66 -145 0
-66 -146 0
145 -145 0
146 -146 0
-82 -157 0
-82 -158 0
157 -157 0
158 -158 0
3 -169 -97 0
-3 169 -97 0
3 169 -98 0
-3 -169 -98 0
19 -169 -109 0
-19 169 -109 0
19 169 -110 0
-19 -169 -110 0
35 -169 -121 0
-35 169 -121 0
35 169 -122 0
-35 -169 -122 0
51 -169 -133 0
-51 169 -133 0
51 169 -134 0
-51 -169 -134 0
67 -169 -145 0
-67 169 -145 0
67 169 -146 0
-67 -169 -146 0
83 -169 -157 0
-83 169 -157 0
83 169 -158 0
-83 -169 -158 0
4 -97 0
4 -98 0
97 -97 0
98 -98 0
20 -109 0
20 -110 0
109 -109 0
110 -110 0
36 -121 0
36 -122 0
121 -121 0
122 -122 0
52 -133 0
52 -134 0
133 -133 0
134 -134 0
68 -145 0
68 -146 0
145 -145 0
146 -146 0
84 -157 0
84 -158 0
157 -157 0
158 -158 0
5 -97 0
5 -98 0
97 -97 0
98 -98 0
21 -109 0
21 -110 0
109 -109 0
110 -110 0
37 -121 0
37 -122 0
121 -121 0
122 -122 0
53 -133 0
53 -134 0
133 -133 0
134 -134 0
69 -145 0
69 -146 0
145 -145 0
146 -146 0
85 -157 0
85 -158 0
157 -157 0
158 -158 0
6 -97 0
6 -98 0
97 -97 0
98 -98 0
22 -109 0
22 -110 0
109 -109 0
110 -110 0
38 -121 0
38 -122 0
121 -121 0
122 -122 0
54 -133 0
54 -134 0
133 -133 0
134 -134 0
70 -145 0
70 -146 0
145 -145 0
146 -146 0
86 -157 0
86 -158 0
157 -157 0
158 -158 0
7 -97 0
7 -98 0
97 -97 0
98 -98 0
23 -109 0
23 -110 0
109 -109 0
110 -110 0
39 -121 0
39 -122 0
121 -121 0
122 -122 0
55 -133 0
55 -134 0
133 -133 0
134 -134 0
71 -145 0
71 -146 0
145 -145 0
146 -146 0
87 -157 0
87 -158 0
157 -157 0
158 -158 0
8 -97 0
8 -98 0
97 -97 0
98 -98 0
24 -109 0
24 -110 0
109 -109 0
110 -110 0
40 -121 0
40 -122 0
121 -121 0
122 -122 0
56 -133 0
56 -134 0
133 -133 0
134 -134 0
72 -145 0
72 -146 0
145 -145 0
146 -146 0
88 -157 0
88 -158 0
157 -157 0
158 -158 0
9 -97 0
9 -98 0
97 -97 0
98 -98 0
25 -109 0
25 -110 0
109 -109 0
110 -110 0
41 -121 0
41 -122 0
121 -121 0
122 -122 0
57 -133 0
57 -134 0
133 -133 0
134 -134 0
73 -145 0
73 -146 0
145 -145 0
146 -146 0
89 -157 0
89 -158 0
157 -157 0
158 -158 0
10 -97 0
10 -98 0
97 -97 0
98 -98 0
26 -109 0
26 -110 0
109 -109 0
110 -110 0
42 -121 0
42 -122 0
121 -121 0
122 -122 0
58 -133 0
58 -134 0
133 -133 0
134 -134 0
74 -145 0
74 -146 0
145 -145 0
146 -146 0
90 -157 0
90 -158 0
157 -157 0
158 -158 0
11 -97 0
11 -98 0
97 -97 0
98 -98 0
27 -109 0
27 -110 0
109 -109 0
110 -110 0
43 -121 0
43 -122 0
121 -121 0
122 -122 0
59 -133 0
59 -134 0
133 -133 0
134 -134 0
75 -145 0
75 -146 0
145 -145 0
146 -146 0
91 -157 0
91 -158 0
157 -157 0
158 -158 0
12 -97 0
12 -98 0
97 -97 0
98 -98 0
28 -109 0
28 -110 0
109 -109 0
110 -110 0
44 -121 0
44 -122 0
121 -121 0
122 -122 0
60 -133 0
60 -134 0
133 -133 0
134 -134 0
76 -145 0
76 -146 0
145 -145 0
146 -146 0
92 -157 0
92 -158 0
157 -157 0
158 -158 0
-13 -97 0
-13 -98 0
97 -97 0
98 -98 0
-29 -109 0
-29 -110 0
109 -109 0
110 -110 0
-45 -121 0
-45 -122 0
121 -121 0
122 -122 0
-61 -133 0
-61 -134 0
133 -133 0
134 -134 0
-77 -145 0
-77 -146 0
145 -145 0
146 -146 0
-93 -157 0
-93 -158 0
157 -157 0
158 -158 0
-14 -97 0
-14 -98 0
97 -97 0
98 -98 0
-30 -109 0
-30 -110 0
109 -109 0
110 -110 0
-46 -121 0
-46 -122 0
121 -121 0
122 -122 0
-62 -133 0
-62 -134 0
133 -133 0
134 -134 0
-78 -145 0
-78 -146 0
145 -145 0
146 -146 0
-94 -157 0
-94 -158 0
157 -157 0
158 -158 0
15 -97 0
15 -98 0
97 -97 0
98 -98 0
31 -109 0
31 -110 0
109 -109 0
110 -110 0
47 -121 0
47 -122 0
121 -121 0
122 -122 0
63 -133 0
63 -134 0
133 -133 0
134 -134 0
79 -145 0
79 -146 0
145 -145 0
146 -146 0
95 -157 0
95 -158 0
157 -157 0
158 -158 0
-16 -97 0
-16 -98 0
97 -97 0
98 -98 0
-32 -109 0
-32 -110 0
109 -109 0
110 -110 0
-48 -121 0
-48 -122 0
121 -121 0
122 -122 0
-64 -133 0
-64 -134 0
133 -133 0
134 -134 0
-80 -145 0
-80 -146 0
145 -145 0
146 -146 0
-96 -157 0
-96 -158 0
157 -157 0
158 -158 0
-265 97 0
265 -97 0
-266 98 0
265 -98 0
-265 -97 0
-266 -98 0
-277 97 265 0
277 -97 0
277 -265 0
-278 98 266 0
278 -98 0
278 -266 0
-277 -109 0
-278 -110 0
-289 109 277 0
289 -109 0
289 -277 0
-290 110 278 0
290 -110 0
290 -278 0
-289 -121 0
-290 -122 0
-301 121 289 0
301 -121 0
301 -289 0
-302 122 290 0
302 -122 0
302 -290 0
-301 -133 0
-302 -134 0
-313 133 301 0
313 -133 0
313 -301 0
-314 134 302 0
314 -134 0
314 -302 0
-313 -145 0
-314 -146 0
-325 145 313 0
325 -145 0
325 -313 0
-326 146 314 0
326 -146 0
326 -314 0
-325 -157 0
-326 -158 0
325 0
326 0
-1 -99 0
-1 -100 0
99 -99 0
100 -100 0
-17 -111 0
-17 -112 0
111 -111 0
112 -112 0
-33 -123 0
-33 -124 0
123 -123 0
124 -124 0
-49 -135 0
-49 -136 0
135 -135 0
136 -136 0
-65 -147 0
-65 -148 0
147 -147 0
148 -148 0
-81 -159 0
-81 -160 0
159 -159 0
160 -160 0
-2 -99 0
-2 -100 0
99 -99 0
100 -100 0
-18 -111 0
-18 -112 0
111 -111 0
112 -112 0
-34 -123 0
-34 -124 0
123 -123 0
124 -124 0
-50 -135 0
-50 -136 0
135 -135 0
136 -136 0
-66 -147 0
-66 -148 0
147 -147 0
148 -148 0
-82 -159 0
-82 -160 0
159 -159 0
160 -160 0
3 -170 -99 0
-3 170 -99 0
3 170 -100 0
-3 -170 -100 0
19 -170 -111 0
-19 170 -111 0
19 170 -112 0
-19 -170 -112 0
35 -170 -123 0
-35 170 -123 0
35 170 -124 0
-35 -170 -124 0
51 -170 -135 0
-51 170 -135 0
51 170 -136 0
-51 -170 -136 0
67 -170 -147 0
-67 170 -147 0
67 170 -148 0
-67 -170 -148 0
83 -170 -159 0
-83 170 -159 0
83 170 -160 0
-83 -170 -160 0
4 -99 0
4 -100 0
99 -99 0
100 -100 0
20 -111 0
20 -112 0
111 -111 0
112 -112 0
36 -123 0
36 -124 0
123 -123 0
124 -124 0
52 -135 0
52 -136 0
135 -135 0
136 -136 0
68 -147 0
68 -148 0
147 -147 0
148 -148 0
84 -159 0
84 -160 0
159 -159 0
160 -160 0
5 -99 0
5 -100 0
99 -99 0
100 -100 0
21 -111 0
21 -112 0
111 -111 0
112 -112 0
37 -123 0
37 -124 0
123 -123 0
124 -124 0
53 -135 0
53 -136 0
135 -135 0
136 -136 0
69 -147 0
69 -148 0
147 -147 0
148 -148 0
85 -159 0
85 -160 0
159 -159 0
160 -160 0
6 -171 -99 0
-6 171 -99 0
6 171 -100 0
-6 -171 -100 0
22 -171 -111 0
-22 171 -111 0
22 171 -112 0
-22 -171 -112 0
38 -171 -123 0
-38 171 -123 0
38 171 -124 0
-38 -171 -124 0
54 -171 -135 0
-54 171 -135 0
54 171 -136 0
-54 -171 -136 0
70 -171 -147 0
-70 171 -147 0
70 171 -148 0
-70 -171 -148 0
86 -171 -159 0
-86 171 -159 0
86 171 -160 0
-86 -171 -160 0
7 -99 0
7 -100 0
99 -99 0
100 -100 0
23 -111 0
23 -112 0
111 -111 0
112 -112 0
39 -123 0
39 -124 0
123 -123 0
124 -124 0
55 -135 0
55 -136 0
135 -135 0
136 -136 0
71 -147 0
71 -148 0
147 -147 0
148 -148 0
87 -159 0
87 -160 0
159 -159 0
160 -160 0
8 -99 0
8 -100 0
99 -99 0
100 -100 0
24 -111 0
24 -112 0
111 -111 0
112 -112 0
40 -123 0
40 -124 0
123 -123 0
124 -124 0
56 -135 0
56 -136 0
135 -135 0
136 -136 0
72 -147 0
72 -148 0
147 -147 0
148 -148 0
88 -159 0
88 -160 0
159 -159 0
160 -160 0
9 -172 -99 0
-9 172 -99 0
9 172 -100 0
-9 -172 -100 0
25 -172 -111 0
-25 172 -111 0
25 172 -112 0
-25 -172 -112 0
41 -172 -123 0
-41 172 -123 0
41 172 -124 0
-41 -172 -124 0
57 -172 -135 0
-57 172 -135 0
57 172 -136 0
-57 -172 -136 0
73 -172 -147 0
-73 172 -147 0
73 172 -148 0
-73 -172 -148 0
89 -172 -159 0
-89 172 -159 0
89 172 -160 0
-89 -172 -160 0
10 -99 0
10 -100 0
99 -99 0
100 -100 0
26 -111 0
26 -112 0
111 -111 0
112 -112 0
42 -123 0
42 -124 0
123 -123 0
124 -124 0
58 -135 0
58 -136 0
135 -135 0
136 -136 0
74 -147 0
74 -148 0
147 -147 0
148 -148 0
90 -159 0
90 -160 0
159 -159 0
160 -160 0
11 -99 0
11 -100 0
99 -99 0
100 -100 0
27 -111 0
27 -112 0
111 -111 0
112 -112 0
43 -123 0
43 -124 0
123 -123 0
124 -124 0
59 -135 0
59 -136 0
135 -135 0
136 -136 0
75 -147 0
75 -148 0
147 -147 0
148 -148 0
91 -159 0
91 -160 0
159 -159 0
160 -160 0
12 -99 0
12 -100 0
99 -99 0
100 -100 0
28 -111 0
28 -112 0
111 -111 0
112 -112 0
44 -123 0
44 -124 0
123 -123 0
124 -124 0
60 -135 0
60 -136 0
135 -135 0
136 -136 0
76 -147 0
76 -148 0
147 -147 0
148 -148 0
92 -159 0
92 -160 0
159 -159 0
160 -160 0
13 -173 -99 0
-13 173 -99 0
13 173 -100 0
-13 -173 -100 0
29 -173 -111 0
-29 173 -111 0
29 173 -112 0
-29 -173 -112 0
45 -173 -123 0
-45 173 -123 0
45 173 -124 0
-45 -173 -124 0
61 -173 -135 0
-61 173 -135 0
61 173 -136 0
-61 -173 -136 0
77 -173 -147 0
-77 173 -147 0
77 173 -148 0
-77 -173 -148 0
93 -173 -159 0
-93 173 -159 0
93 173 -160 0
-93 -173 -160 0
14 -174 -99 0
-14 174 -99 0
14 174 -100 0
-14 -174 -100 0
30 -174 -111 0
-30 174 -111 0
30 174 -112 0
-30 -174 -112 0
46 -174 -123 0
-46 174 -123 0
46 174 -124 0
-46 -174 -124 0
62 -174 -135 0
-62 174 -135 0
62 174 -136 0
-62 -174 -136 0
78 -174 -147 0
-78 174 -147 0
78 174 -148 0
-78 -174 -148 0
94 -174 -159 0
-94 174 -159 0
94 174 -160 0
-94 -174 -160 0
15 -99 0
15 -100 0
99 -99 0
100 -100 0
31 -111 0
31 -112 0
111 -111 0
112 -112 0
47 -123 0
47 -124 0
123 -123 0
124 -124 0
63 -135 0
63 -136 0
135 -135 0
136 -136 0
79 -147 0
79 -148 0
147 -147 0
148 -148 0
95 -159 0
95 -160 0
159 -159 0
160 -160 0
16 -175 -99 0
-16 175 -99 0
16 175 -100 0
-16 -175 -100 0
32 -175 -111 0
-32 175 -111 0
32 175 -112 0
-32 -175 -112 0
48 -175 -123 0
-48 175 -123 0
48 175 -124 0
-48 -175 -124 0
64 -175 -135 0
-64 175 -135 0
64 175 -136 0
-64 -175 -136 0
80 -175 -147 0
-80 175 -147 0
80 175 -148 0
-80 -175 -148 0
96 -175 -159 0
-96 175 -159 0
96 175 -160 0
-96 -175 -160 0
-267 99 0
267 -99 0
-268 100 0
267 -100 0
-267 -99 0
-268 -100 0
-279 99 267 0
279 -99 0
279 -267 0
-280 100 268 0
280 -100 0
280 -268 0
-279 -111 0
-280 -112 0
-291 111 279 0
291 -111 0
291 -279 0
-292 112 280 0
292 -112 0
292 -280 0
-291 -123 0
-292 -124 0
-303 123 291 0
303 -123 0
303 -291 0
-304 124 292 0
304 -124 0
304 -292 0
-303 -135 0
-304 -136 0
-315 135 303 0
315 -135 0
315 -303 0
-316 136 304 0
316 -136 0
316 -304 0
-315 -147 0
-316 -148 0
-327 147 315 0
327 -147 0
327 -315 0
-328 148 316 0
328 -148 0
328 -316 0
-327 -159 0
-328 -160 0
327 0
328 0
1 -176 -101 0
-1 176 -101 0
1 176 -102 0
-1 -176 -102 0
17 -176 -113 0
-17 176 -113 0
17 176 -114 0
-17 -176 -114 0
33 -176 -125 0
-33 176 -125 0
33 176 -126 0
-33 -176 -126 0
49 -176 -137 0
-49 176 -137 0
49 176 -138 0
-49 -176 -138 0
65 -176 -149 0
-65 176 -149 0
65 176 -150 0
-65 -176 -150 0
81 -176 -161 0
-81 176 -161 0
81 176 -162 0
-81 -176 -162 0
2 -177 -101 0
-2 177 -101 0
2 177 -102 0
-2 -177 -102 0
18 -177 -113 0
-18 177 -113 0
18 177 -114 0
-18 -177 -114 0
34 -177 -125 0
-34 177 -125 0
34 177 -126 0
-34 -177 -126 0
50 -177 -137 0
-50 177 -137 0
50 177 -138 0
-50 -177 -138 0
66 -177 -149 0
-66 177 -149 0
66 177 -150 0
-66 -177 -150 0
82 -177 -161 0
-82 177 -161 0
82 177 -162 0
-82 -177 -162 0
-3 -101 0
-3 -102 0
101 -101 0
102 -102 0
-19 -113 0
-19 -114 0
113 -113 0
114 -114 0
-35 -125 0
-35 -126 0
125 -125 0
126 -126 0
-51 -137 0
-51 -138 0
137 -137 0
138 -138 0
-67 -149 0
-67 -150 0
149 -149 0
150 -150 0
-83 -161 0
-83 -162 0
161 -161 0
162 -162 0
4 -178 -101 0
-4 178 -101 0
4 178 -102 0
-4 -178 -102 0
20 -178 -113 0
-20 178 -113 0
20 178 -114 0
-20 -178 -114 0
36 -178 -125 0
-36 178 -125 0
36 178 -126 0
-36 -178 -126 0
52 -178 -137 0
-52 178 -137 0
52 178 -138 0
-52 -178 -138 0
68 -178 -149 0
-68 178 -149 0
68 178 -150 0
-68 -178 -150 0
84 -178 -161 0
-84 178 -161 0
84 178 -162 0
-84 -178 -162 0
5 -101 0
5 -102 0
101 -101 0
102 -102 0
21 -113 0
21 -114 0
113 -113 0
114 -114 0
37 -125 0
37 -126 0
125 -125 0
126 -126 0
53 -137 0
53 -138 0
137 -137 0
138 -138 0
69 -149 0
69 -150 0
149 -149 0
150 -150 0
85 -161 0
85 -162 0
161 -161 0
162 -162 0
6 -101 0
6 -102 0
101 -101 0
102 -102 0
22 -113 0
22 -114 0
113 -113 0
114 -114 0
38 -125 0
38 -126 0
125 -125 0
126 -126 0
54 -137 0
54 -138 0
137 -137 0
138 -138 0
70 -149 0
70 -150 0
149 -149 0
150 -150 0
86 -161 0
86 -162 0
161 -161 0
162 -162 0
7 -101 0
7 -102 0
101 -101 0
102 -102 0
23 -113 0
23 -114 0
113 -113 0
114 -114 0
39 -125 0
39 -126 0
125 -125 0
126 -126 0
55 -137 0
55 -138 0
137 -137 0
138 -138 0
71 -149 0
71 -150 0
149 -149 0
150 -150 0
87 -161 0
87 -162 0
161 -161 0
162 -162 0
8 -101 0
8 -102 0
101 -101 0
102 -102 0
24 -113 0
24 -114 0
113 -113 0
114 -114 0
40 -125 0
40 -126 0
125 -125 0
126 -126 0
56 -137 0
56 -138 0
137 -137 0
138 -138 0
72 -149 0
72 -150 0
149 -149 0
150 -150 0
88 -161 0
88 -162 0
161 -161 0
162 -162 0
9 -101 0
9 -102 0
101 -101 0
102 -102 0
25 -113 0
25 -114 0
113 -113 0
114 -114 0
41 -125 0
41 -126 0
125 -125 0
126 -126 0
57 -137 0
57 -138 0
137 -137 0
138 -138 0
73 -149 0
73 -150 0
149 -149 0
150 -150 0
89 -161 0
89 -162 0
161 -161 0
162 -162 0
10 -101 0
10 -102 0
101 -101 0
102 -102 0
26 -113 0
26 -114 0
113 -113 0
114 -114 0
42 -125 0
42 -126 0
125 -125 0
126 -126 0
58 -137 0
58 -138 0
137 -137 0
138 -138 0
74 -149 0
74 -150 0
149 -149 0
150 -150 0
90 -161 0
90 -162 0
161 -161 0
162 -162 0
11 -101 0
11 -102 0
101 -101 0
102 -102 0
27 -113 0
27 -114 0
113 -113 0
114 -114 0
43 -125 0
43 -126 0
125 -125 0
126 -126 0
59 -137 0
59 -138 0
137 -137 0
138 -138 0
75 -149 0
75 -150 0
149 -149 0
150 -150 0
91 -161 0
91 -162 0
161 -161 0
162 -162 0
12 -101 0
12 -102 0
101 -101 0
102 -102 0
28 -113 0
28 -114 0
113 -113 0
114 -114 0
44 -125 0
44 -126 0
125 -125 0
126 -126 0
60 -137 0
60 -138 0
137 -137 0
138 -138 0
76 -149 0
76 -150 0
149 -149 0
150 -150 0
92 -161 0
92 -162 0
161 -161 0
162 -162 0
13 -179 -101 0
-13 179 -101 0
13 179 -102 0
-13 -179 -102 0
29 -179 -113 0
-29 179 -113 0
29 179 -114 0
-29 -179 -114 0
45 -179 -125 0
-45 179 -125 0
45 179 -126 0
-45 -179 -126 0
61 -179 -137 0
-61 179 -137 0
61 179 -138 0
-61 -179 -138 0
77 -179 -149 0
-77 179 -149 0
77 179 -150 0
-77 -179 -150 0
93 -179 -161 0
-93 179 -161 0
93 179 -162 0
-93 -179 -162 0
14 -180 -101 0
-14 180 -101 0
14 180 -102 0
-14 -180 -102 0
30 -180 -113 0
-30 180 -113 0
30 180 -114 0
-30 -180 -114 0
46 -180 -125 0
-46 180 -125 0
46 180 -126 0
-46 -180 -126 0
62 -180 -137 0
-62 180 -137 0
62 180 -138 0
-62 -180 -138 0
78 -180 -149 0
-78 180 -149 0
78 180 -150 0
-78 -180 -150 0
94 -180 -161 0
-94 180 -161 0
94 180 -162 0
-94 -180 -162 0
15 -181 -101 0
-15 181 -101 0
15 181 -102 0
-15 -181 -102 0
31 -181 -113 0
-31 181 -113 0
31 181 -114 0
-31 -181 -114 0
47 -181 -125 0
-47 181 -125 0
47 181 -126 0
-47 -181 -126 0
63 -181 -137 0
-63 181 -137 0
63 181 -138 0
-63 -181 -138 0
79 -181 -149 0
-79 181 -149 0
79 181 -150 0
-79 -181 -150 0
95 -181 -161 0
-95 181 -161 0
95 181 -162 0
-95 -181 -162 0
16 -182 -101 0
-16 182 -101 0
16 182 -102 0
-16 -182 -102 0
32 -182 -113 0
-32 182 -113 0
32 182 -114 0
-32 -182 -114 0
48 -182 -125 0
-48 182 -125 0
48 182 -126 0
-48 -182 -126 0
64 -182 -137 0
-64 182 -137 0
64 182 -138 0
-64 -182 -138 0
80 -182 -149 0
-80 182 -149 0
80 182 -150 0
-80 -182 -150 0
96 -182 -161 0
-96 182 -161 0
96 182 -162 0
-96 -182 -162 0
-269 101 0
269 -101 0
-270 102 0
269 -102 0
-269 -101 0
-270 -102 0
-281 101 269 0
281 -101 0
281 -269 0
-282 102 270 0
282 -102 0
282 -270 0
-281 -113 0
-282 -114 0
-293 113 281 0
293 -113 0
293 -281 0
-294 114 282 0
294 -114 0
294 -282 0
-293 -125 0
-294 -126 0
-305 125 293 0
305 -125 0
305 -293 0
-306 126 294 0
306 -126 0
306 -294 0
-305 -137 0
-306 -138 0
-317 137 305 0
317 -137 0
317 -305 0
-318 138 306 0
318 -138 0
318 -306 0
-317 -149 0
-318 -150 0
-329 149 317 0
329 -149 0
329 -317 0
-330 150 318 0
330 -150 0
330 -318 0
-329 -161 0
-330 -162 0
329 0
330 0
-1 -103 0
-1 -104 0
103 -103 0
104 -104 0
-17 -115 0
-17 -116 0
115 -115 0
116 -116 0
-33 -127 0
-33 -128 0
127 -127 0
128 -128 0
-49 -139 0
-49 -140 0
139 -139 0
140 -140 0
-65 -151 0
-65 -152 0
151 -151 0
152 -152 0
-81 -163 0
-81 -164 0
163 -163 0
164 -164 0
-2 -103 0
-2 -104 0
103 -103 0
104 -104 0
-18 -115 0
-18 -116 0
115 -115 0
116 -116 0
-34 -127 0
-34 -128 0
127 -127 0
128 -128 0
-50 -139 0
-50 -140 0
139 -139 0
140 -140 0
-66 -151 0
-66 -152 0
151 -151 0
152 -152 0
-82 -163 0
-82 -164 0
163 -163 0
164 -164 0
-3 -103 0
-3 -104 0
103 -103 0
104 -104 0
-19 -115 0
-19 -116 0
115 -115 0
116 -116 0
-35 -127 0
-35 -128 0
127 -127 0
128 -128 0
-51 -139 0
-51 -140 0
139 -139 0
140 -140 0
-67 -151 0
-67 -152 0
151 -151 0
152 -152 0
-83 -163 0
-83 -164 0
163 -163 0
164 -164 0
4 -103 0
4 -104 0
103 -103 0
104 -104 0
20 -115 0
20 -116 0
115 -115 0
116 -116 0
36 -127 0
36 -128 0
127 -127 0
128 -128 0
52 -139 0
52 -140 0
139 -139 0
140 -140 0
68 -151 0
68 -152 0
151 -151 0
152 -152 0
84 -163 0
84 -164 0
163 -163 0
164 -164 0
5 -103 0
5 -104 0
103 -103 0
104 -104 0
21 -115 0
21 -116 0
115 -115 0
116 -116 0
37 -127 0
37 -128 0
127 -127 0
128 -128 0
53 -139 0
53 -140 0
139 -139 0
140 -140 0
69 -151 0
69 -152 0
151 -151 0
152 -152 0
85 -163 0
85 -164 0
163 -163 0
164 -164 0
6 -103 0
6 -104 0
103 -103 0
104 -104 0
22 -115 0
22 -116 0
115 -115 0
116 -116 0
38 -127 0
38 -128 0
127 -127 0
128 -128 0
54 -139 0
54 -140 0
139 -139 0
140 -140 0
70 -151 0
70 -152 0
151 -151 0
152 -152 0
86 -163 0
86 -164 0
163 -163 0
164 -164 0
7 -103 0
7 -104 0
103 -103 0
104 -104 0
23 -115 0
23 -116 0
115 -115 0
116 -116 0
39 -127 0
39 -128 0
127 -127 0
128 -128 0
55 -139 0
55 -140 0
139 -139 0
140 -140 0
71 -151 0
71 -152 0
151 -151 0
152 -152 0
87 -163 0
87 -164 0
163 -163 0
164 -164 0
8 -103 0
8 -104 0
103 -103 0
104 -104 0
24 -115 0
24 -116 0
115 -115 0
116 -116 0
40 -127 0
40 -128 0
127 -127 0
128 -128 0
56 -139 0
56 -140 0
139 -139 0
140 -140 0
72 -151 0
72 -152 0
151 -151 0
152 -152 0
88 -163 0
88 -164 0
163 -163 0
164 -164 0
9 -183 -103 0
-9 183 -103 0
9 183 -104 0
-9 -183 -104 0
25 -183 -115 0
-25 183 -115 0
25 183 -116 0
-25 -183 -116 0
41 -183 -127 0
-41 183 -127 0
41 183 -128 0
-41 -183 -128 0
57 -183 -139 0
-57 183 -139 0
57 183 -140 0
-57 -183 -140 0
73 -183 -151 0
-73 183 -151 0
73 183 -152 0
-73 -183 -152 0
89 -183 -163 0
-89 183 -163 0
89 183 -164 0
-89 -183 -164 0
10 -103 0
10 -104 0
103 -103 0
104 -104 0
26 -115 0
26 -116 0
115 -115 0
116 -116 0
42 -127 0
42 -128 0
127 -127 0
128 -128 0
58 -139 0
58 -140 0
139 -139 0
140 -140 0
74 -151 0
74 -152 0
151 -151 0
152 -152 0
90 -163 0
90 -164 0
163 -163 0
164 -164 0
11 -103 0
11 -104 0
103 -103 0
104 -104 0
27 -115 0
27 -116 0
115 -115 0
116 -116 0
43 -127 0
43 -128 0
127 -127 0
128 -128 0
59 -139 0
59 -140 0
139 -139 0
140 -140 0
75 -151 0
75 -152 0
151 -151 0
152 -152 0
91 -163 0
91 -164 0
163 -163 0
164 -164 0
12 -103 0
12 -104 0
103 -103 0
104 -104 0
28 -115 0
28 -116 0
115 -115 0
116 -116 0
44 -127 0
44 -128 0
127 -127 0
128 -128 0
60 -139 0
60 -140 0
139 -139 0
140 -140 0
76 -151 0
76 -152 0
151 -151 0
152 -152 0
92 -163 0
92 -164 0
163 -163 0
164 -164 0
13 -184 -103 0
-13 184 -103 0
13 184 -104 0
-13 -184 -104 0
29 -184 -115 0
-29 184 -115 0
29 184 -116 0
-29 -184 -116 0
45 -184 -127 0
-45 184 -127 0
45 184 -128 0
-45 -184 -128 0
61 -184 -139 0
-61 184 -139 0
61 184 -140 0
-61 -184 -140 0
77 -184 -151 0
-77 184 -151 0
77 184 -152 0
-77 -184 -152 0
93 -184 -163 0
-93 184 -163 0
93 184 -164 0
-93 -184 -164 0
14 -185 -103 0
-14 185 -103 0
14 185 -104 0
-14 -185 -104 0
30 -185 -115 0
-30 185 -115 0
30 185 -116 0
-30 -185 -116 0
46 -185 -127 0
-46 185 -127 0
46 185 -128 0
-46 -185 -128 0
62 -185 -139 0
-62 185 -139 0
62 185 -140 0
-62 -185 -140 0
78 -185 -151 0
-78 185 -151 0
78 185 -152 0
-78 -185 -152 0
94 -185 -163 0
-94 185 -163 0
94 185 -164 0
-94 -185 -164 0
15 -186 -103 0
-15 186 -103 0
15 186 -104 0
-15 -186 -104 0
31 -186 -115 0
-31 186 -115 0
31 186 -116 0
-31 -186 -116 0
47 -186 -127 0
-47 186 -127 0
47 186 -128 0
-47 -186 -128 0
63 -186 -139 0
-63 186 -139 0
63 186 -140 0
-63 -186 -140 0
79 -186 -151 0
-79 186 -151 0
79 186 -152 0
-79 -186 -152 0
95 -186 -163 0
-95 186 -163 0
95 186 -164 0
-95 -186 -164 0
16 -187 -103 0
-16 187 -103 0
16 187 -104 0
-16 -187 -104 0
32 -187 -115 0
-32 187 -115 0
32 187 -116 0
-32 -187 -116 0
48 -187 -127 0
-48 187 -127 0
48 187 -128 0
-48 -187 -128 0
64 -187 -139 0
-64 187 -139 0
64 187 -140 0
-64 -187 -140 0
80 -187 -151 0
-80 187 -151 0
80 187 -152 0
-80 -187 -152 0
96 -187 -163 0
-96 187 -163 0
96 187 -164 0
-96 -187 -164 0
-271 103 0
271 -103 0
-272 104 0
271 -104 0
-271 -103 0
-272 -104 0
-283 103 271 0
283 -103 0
283 -271 0
-284 104 272 0
284 -104 0
284 -272 0
-283 -115 0
-284 -116 0
-295 115 283 0
295 -115 0
295 -283 0
-296 116 284 0
296 -116 0
296 -284 0
-295 -127 0
-296 -128 0
-307 127 295 0
307 -127 0
307 -295 0
-308 128 296 0
308 -128 0
308 -296 0
-307 -139 0
-308 -140 0
-319 139 307 0
319 -139 0
319 -307 0
-320 140 308 0
320 -140 0
320 -308 0
-319 -151 0
-320 -152 0
-331 151 319 0
331 -151 0
331 -319 0
-332 152 320 0
332 -152 0
332 -320 0
-331 -163 0
-332 -164 0
331 0
332 0
1 -188 -105 0
-1 188 -105 0
1 188 -106 0
-1 -188 -106 0
17 -188 -117 0
-17 188 -117 0
17 188 -118 0
-17 -188 -118 0
33 -188 -129 0
-33 188 -129 0
33 188 -130 0
-33 -188 -130 0
49 -188 -141 0
-49 188 -141 0
49 188 -142 0
-49 -188 -142 0
65 -188 -153 0
-65 188 -153 0
65 188 -154 0
-65 -188 -154 0
81 -188 -165 0
-81 188 -165 0
81 188 -166 0
-81 -188 -166 0
2 -189 -105 0
-2 189 -105 0
2 189 -106 0
-2 -189 -106 0
18 -189 -117 0
-18 189 -117 0
18 189 -118 0
-18 -189 -118 0
34 -189 -129 0
-34 189 -129 0
34 189 -130 0
-34 -189 -130 0
50 -189 -141 0
-50 189 -141 0
50 189 -142 0
-50 -189 -142 0
66 -189 -153 0
-66 189 -153 0
66 189 -154 0
-66 -189 -154 0
82 -189 -165 0
-82 189 -165 0
82 189 -166 0
-82 -189 -166 0
3 -105 0
3 -106 0
105 -105 0
106 -106 0
19 -117 0
19 -118 0
117 -117 0
118 -118 0
35 -129 0
35 -130 0
129 -129 0
130 -130 0
51 -141 0
51 -142 0
141 -141 0
142 -142 0
67 -153 0
67 -154 0
153 -153 0
154 -154 0
83 -165 0
83 -166 0
165 -165 0
166 -166 0
4 -190 -105 0
-4 190 -105 0
4 190 -106 0
-4 -190 -106 0
20 -190 -117 0
-20 190 -117 0
20 190 -118 0
-20 -190 -118 0
36 -190 -129 0
-36 190 -129 0
36 190 -130 0
-36 -190 -130 0
52 -190 -141 0
-52 190 -141 0
52 190 -142 0
-52 -190 -142 0
68 -190 -153 0
-68 190 -153 0
68 190 -154 0
-68 -190 -154 0
84 -190 -165 0
-84 190 -165 0
84 190 -166 0
-84 -190 -166 0
5 -105 0
5 -106 0
105 -105 0
106 -106 0
21 -117 0
21 -118 0
117 -117 0
118 -118 0
37 -129 0
37 -130 0
129 -129 0
130 -130 0
53 -141 0
53 -142 0
141 -141 0
142 -142 0
69 -153 0
69 -154 0
153 -153 0
154 -154 0
85 -165 0
85 -166 0
165 -165 0
166 -166 0
6 -105 0
6 -106 0
105 -105 0
106 -106 0
22 -117 0
22 -118 0
117 -117 0
118 -118 0
38 -129 0
38 -130 0
129 -129 0
130 -130 0
54 -141 0
54 -142 0
141 -141 0
142 -142 0
70 -153 0
70 -154 0
153 -153 0
154 -154 0
86 -165 0
86 -166 0
165 -165 0
166 -166 0
7 -105 0
7 -106 0
105 -105 0
106 -106 0
23 -117 0
23 -118 0
117 -117 0
118 -118 0
39 -129 0
39 -130 0
129 -129 0
130 -130 0
55 -141 0
55 -142 0
141 -141 0
142 -142 0
71 -153 0
71 -154 0
153 -153 0
154 -154 0
87 -165 0
87 -166 0
165 -165 0
166 -166 0
8 -105 0
8 -106 0
105 -105 0
106 -106 0
24 -117 0
24 -118 0
117 -117 0
118 -118 0
40 -129 0
40 -130 0
129 -129 0
130 -130 0
56 -141 0
56 -142 0
141 -141 0
142 -142 0
72 -153 0
72 -154 0
153 -153 0
154 -154 0
88 -165 0
88 -166 0
165 -165 0
166 -166 0
-9 -105 0
-9 -106 0
105 -105 0
106 -106 0
-25 -117 0
-25 -118 0
117 -117 0
118 -118 0
-41 -129 0
-41 -130 0
129 -129 0
130 -130 0
-57 -141 0
-57 -142 0
141 -141 0
142 -142 0
-73 -153 0
-73 -154 0
153 -153 0
154 -154 0
-89 -165 0
-89 -166 0
165 -165 0
166 -166 0
10 -191 -105 0
-10 191 -105 0
10 191 -106 0
-10 -191 -106 0
26 -191 -117 0
-26 191 -117 0
26 191 -118 0
-26 -191 -118 0
42 -191 -129 0
-42 191 -129 0
42 191 -130 0
-42 -191 -130 0
58 -191 -141 0
-58 191 -141 0
58 191 -142 0
-58 -191 -142 0
74 -191 -153 0
-74 191 -153 0
74 191 -154 0
-74 -191 -154 0
90 -191 -165 0
-90 191 -165 0
90 191 -166 0
-90 -191 -166 0
11 -192 -105 0
-11 192 -105 0
11 192 -106 0
-11 -192 -106 0
27 -192 -117 0
-27 192 -117 0
27 192 -118 0
-27 -192 -118 0
43 -192 -129 0
-43 192 -129 0
43 192 -130 0
-43 -192 -130 0
59 -192 -141 0
-59 192 -141 0
59 192 -142 0
-59 -192 -142 0
75 -192 -153 0
-75 192 -153 0
75 192 -154 0
-75 -192 -154 0
91 -192 -165 0
-91 192 -165 0
91 192 -166 0
-91 -192 -166 0
12 -193 -105 0
-12 193 -105 0
12 193 -106 0
-12 -193 -106 0
28 -193 -117 0
-28 193 -117 0
28 193 -118 0
-28 -193 -118 0
44 -193 -129 0
-44 193 -129 0
44 193 -130 0
-44 -193 -130 0
60 -193 -141 0
-60 193 -141 0
60 193 -142 0
-60 -193 -142 0
76 -193 -153 0
-76 193 -153 0
76 193 -154 0
-76 -193 -154 0
92 -193 -165 0
-92 193 -165 0
92 193 -166 0
-92 -193 -166 0
13 -105 0
13 -106 0
105 -105 0
106 -106 0
29 -117 0
29 -118 0
117 -117 0
118 -118 0
45 -129 0
45 -130 0
129 -129 0
130 -130 0
61 -141 0
61 -142 0
141 -141 0
142 -142 0
77 -153 0
77 -154 0
153 -153 0
154 -154 0
93 -165 0
93 -166 0
165 -165 0
166 -166 0
14 -105 0
14 -106 0
105 -105 0
106 -106 0
30 -117 0
30 -118 0
117 -117 0
118 -118 0
46 -129 0
46 -130 0
129 -129 0
130 -130 0
62 -141 0
62 -142 0
141 -141 0
142 -142 0
78 -153 0
78 -154 0
153 -153 0
154 -154 0
94 -165 0
94 -166 0
165 -165 0
166 -166 0
15 -105 0
15 -106 0
105 -105 0
106 -106 0
31 -117 0
31 -118 0
117 -117 0
118 -118 0
47 -129 0
47 -130 0
129 -129 0
130 -130 0
63 -141 0
63 -142 0
141 -141 0
142 -142 0
79 -153 0
79 -154 0
153 -153 0
154 -154 0
95 -165 0
95 -166 0
165 -165 0
166 -166 0
16 -194 -105 0
-16 194 -105 0
16 194 -106 0
-16 -194 -106 0
32 -194 -117 0
-32 194 -117 0
32 194 -118 0
-32 -194 -118 0
48 -194 -129 0
-48 194 -129 0
48 194 -130 0
-48 -194 -130 0
64 -194 -141 0
-64 194 -141 0
64 194 -142 0
-64 -194 -142 0
80 -194 -153 0
-80 194 -153 0
80 194 -154 0
-80 -194 -154 0
96 -194 -165 0
-96 194 -165 0
96 194 -166 0
-96 -194 -166 0
-273 105 0
273 -105 0
-274 106 0
273 -106 0
-273 -105 0
-274 -106 0
-285 105 273 0
285 -105 0
285 -273 0
-286 106 274 0
286 -106 0
286 -274 0
-285 -117 0
-286 -118 0
-297 117 285 0
297 -117 0
297 -285 0
-298 118 286 0
298 -118 0
298 -286 0
-297 -129 0
-298 -130 0
-309 129 297 0
309 -129 0
309 -297 0
-310 130 298 0
310 -130 0
310 -298 0
-309 -141 0
-310 -142 0
-321 141 309 0
321 -141 0
321 -309 0
-322 142 310 0
322 -142 0
322 -310 0
-321 -153 0
-322 -154 0
-333 153 321 0
333 -153 0
333 -321 0
-334 154 322 0
334 -154 0
334 -322 0
-333 -165 0
-334 -166 0
333 0
334 0
1 -195 -107 0
-1 195 -107 0
1 195 -108 0
-1 -195 -108 0
17 -195 -119 0
-17 195 -119 0
17 195 -120 0
-17 -195 -120 0
33 -195 -131 0
-33 195 -131 0
33 195 -132 0
-33 -195 -132 0
49 -195 -143 0
-49 195 -143 0
49 195 -144 0
-49 -195 -144 0
65 -195 -155 0
-65 195 -155 0
65 195 -156 0
-65 -195 -156 0
81 -195 -167 0
-81 195 -167 0
81 195 -168 0
-81 -195 -168 0
2 -196 -107 0
-2 196 -107 0
2 196 -108 0
-2 -196 -108 0
18 -196 -119 0
-18 196 -119 0
18 196 -120 0
-18 -196 -120 0
34 -196 -131 0
-34 196 -131 0
34 196 -132 0
-34 -196 -132 0
50 -196 -143 0
-50 196 -143 0
50 196 -144 0
-50 -196 -144 0
66 -196 -155 0
-66 196 -155 0
66 196 -156 0
-66 -196 -156 0
82 -196 -167 0
-82 196 -167 0
82 196 -168 0
-82 -196 -168 0
3 -197 -107 0
-3 197 -107 0
3 197 -108 0
-3 -197 -108 0
19 -197 -119 0
-19 197 -119 0
19 197 -120 0
-19 -197 -120 0
35 -197 -131 0
-35 197 -131 0
35 197 -132 0
-35 -197 -132 0
51 -197 -143 0
-51 197 -143 0
51 197 -144 0
-51 -197 -144 0
67 -197 -155 0
-67 197 -155 0
67 197 -156 0
-67 -197 -156 0
83 -197 -167 0
-83 197 -167 0
83 197 -168 0
-83 -197 -168 0
4 -107 0
4 -108 0
107 -107 0
108 -108 0
20 -119 0
20 -120 0
119 -119 0
120 -120 0
36 -131 0
36 -132 0
131 -131 0
132 -132 0
52 -143 0
52 -144 0
143 -143 0
144 -144 0
68 -155 0
68 -156 0
155 -155 0
156 -156 0
84 -167 0
84 -168 0
167 -167 0
168 -168 0
5 -107 0
5 -108 0
107 -107 0
108 -108 0
21 -119 0
21 -120 0
119 -119 0
120 -120 0
37 -131 0
37 -132 0
131 -131 0
132 -132 0
53 -143 0
53 -144 0
143 -143 0
144 -144 0
69 -155 0
69 -156 0
155 -155 0
156 -156 0
85 -167 0
85 -168 0
167 -167 0
168 -168 0
6 -198 -107 0
-6 198 -107 0
6 198 -108 0
-6 -198 -108 0
22 -198 -119 0
-22 198 -119 0
22 198 -120 0
-22 -198 -120 0
38 -198 -131 0
-38 198 -131 0
38 198 -132 0
-38 -198 -132 0
54 -198 -143 0
-54 198 -143 0
54 198 -144 0
-54 -198 -144 0
70 -198 -155 0
-70 198 -155 0
70 198 -156 0
-70 -198 -156 0
86 -198 -167 0
-86 198 -167 0
86 198 -168 0
-86 -198 -168 0
7 -107 0
7 -108 0
107 -107 0
108 -108 0
23 -119 0
23 -120 0
119 -119 0
120 -120 0
39 -131 0
39 -132 0
131 -131 0
132 -132 0
55 -143 0
55 -144 0
143 -143 0
144 -144 0
71 -155 0
71 -156 0
155 -155 0
156 -156 0
87 -167 0
87 -168 0
167 -167 0
168 -168 0
8 -107 0
8 -108 0
107 -107 0
108 -108 0
24 -119 0
24 -120 0
119 -119 0
120 -120 0
40 -131 0
40 -132 0
131 -131 0
132 -132 0
56 -143 0
56 -144 0
143 -143 0
144 -144 0
72 -155 0
72 -156 0
155 -155 0
156 -156 0
88 -167 0
88 -168 0
167 -167 0
168 -168 0
9 -199 -107 0
-9 199 -107 0
9 199 -108 0
-9 -199 -108 0
25 -199 -119 0
-25 199 -119 0
25 199 -120 0
-25 -199 -120 0
41 -199 -131 0
-41 199 -131 0
41 199 -132 0
-41 -199 -132 0
57 -199 -143 0
-57 199 -143 0
57 199 -144 0
-57 -199 -144 0
73 -199 -155 0
-73 199 -155 0
73 199 -156 0
-73 -199 -156 0
89 -199 -167 0
-89 199 -167 0
89 199 -168 0
-89 -199 -168 0
10 -107 0
10 -108 0
107 -107 0
108 -108 0
26 -119 0
26 -120 0
119 -119 0
120 -120 0
42 -131 0
42 -132 0
131 -131 0
132 -132 0
58 -143 0
58 -144 0
143 -143 0
144 -144 0
74 -155 0
74 -156 0
155 -155 0
156 -156 0
90 -167 0
90 -168 0
167 -167 0
168 -168 0
11 -107 0
11 -108 0
107 -107 0
108 -108 0
27 -119 0
27 -120 0
119 -119 0
120 -120 0
43 -131 0
43 -132 0
131 -131 0
132 -132 0
59 -143 0
59 -144 0
143 -143 0
144 -144 0
75 -155 0
75 -156 0
155 -155 0
156 -156 0
91 -167 0
91 -168 0
167 -167 0
168 -168 0
12 -107 0
12 -108 0
107 -107 0
108 -108 0
28 -119 0
28 -120 0
119 -119 0
120 -120 0
44 -131 0
44 -132 0
131 -131 0
132 -132 0
60 -143 0
60 -144 0
143 -143 0
144 -144 0
76 -155 0
76 -156 0
155 -155 0
156 -156 0
92 -167 0
92 -168 0
167 -167 0
168 -168 0
13 -200 -107 0
-13 200 -107 0
13 200 -108 0
-13 -200 -108 0
29 -200 -119 0
-29 200 -119 0
29 200 -120 0
-29 -200 -120 0
45 -200 -131 0
-45 200 -131 0
45 200 -132 0
-45 -200 -132 0
61 -200 -143 0
-61 200 -143 0
61 200 -144 0
-61 -200 -144 0
77 -200 -155 0
-77 200 -155 0
77 200 -156 0
-77 -200 -156 0
93 -200 -167 0
-93 200 -167 0
93 200 -168 0
-93 -200 -168 0
14 -201 -107 0
-14 201 -107 0
14 201 -108 0
-14 -201 -108 0
30 -201 -119 0
-30 201 -119 0
30 201 -120 0
-30 -201 -120 0
46 -201 -131 0
-46 201 -131 0
46 201 -132 0
-46 -201 -132 0
62 -201 -143 0
-62 201 -143 0
62 201 -144 0
-62 -201 -144 0
78 -201 -155 0
-78 201 -155 0
78 201 -156 0
-78 -201 -156 0
94 -201 -167 0
-94 201 -167 0
94 201 -168 0
-94 -201 -168 0
15 -107 0
15 -108 0
107 -107 0
108 -108 0
31 -119 0
31 -120 0
119 -119 0
120 -120 0
47 -131 0
47 -132 0
131 -131 0
132 -132 0
63 -143 0
63 -144 0
143 -143 0
144 -144 0
79 -155 0
79 -156 0
155 -155 0
156 -156 0
95 -167 0
95 -168 0
167 -167 0
168 -168 0
16 -202 -107 0
-16 202 -107 0
16 202 -108 0
-16 -202 -108 0
32 -202 -119 0
-32 202 -119 0
32 202 -120 0
-32 -202 -120 0
48 -202 -131 0
-48 202 -131 0
48 202 -132 0
-48 -202 -132 0
64 -202 -143 0
-64 202 -143 0
64 202 -144 0
-64 -202 -144 0
80 -202 -155 0
-80 202 -155 0
80 202 -156 0
-80 -202 -156 0
96 -202 -167 0
-96 202 -167 0
96 202 -168 0
-96 -202 -168 0
-275 107 0
275 -107 0
-276 108 0
275 -108 0
-275 -107 0
-276 -108 0
-287 107 275 0
287 -107 0
287 -275 0
-288 108 276 0
288 -108 0
288 -276 0
-287 -119 0
-288 -120 0
-299 119 287 0
299 -119 0
299 -287 0
-300 120 288 0
300 -120 0
300 -288 0
-299 -131 0
-300 -132 0
-311 131 299 0
311 -131 0
311 -299 0
-312 132 300 0
312 -132 0
312 -300 0
-311 -143 0
-312 -144 0
-323 143 311 0
323 -143 0
323 -311 0
-324 144 312 0
324 -144 0
324 -312 0
-323 -155 0
-324 -156 0
-335 155 323 0
335 -155 0
335 -323 0
-336 156 324 0
336 -156 0
336 -324 0
-335 -167 0
-336 -168 0
335 0
336 0
